NAME 
OBJSENSE MAX
ROWS
 N  OBJ
 L  packing[0]
 L  packing[1]
 L  packing[2]
 L  packing[3]
 L  packing[4]
 L  packing[5]
 L  packing[6]
 L  packing[7]
 L  packing[8]
 L  packing[9]
 L  packing[10]
 L  packing[11]
 L  packing[12]
 L  packing[13]
 L  packing[14]
 L  packing[15]
 L  packing[16]
 L  packing[17]
 L  packing[18]
 L  packing[19]
 L  packing[20]
 L  packing[21]
 L  packing[22]
 L  packing[23]
 L  packing[24]
 L  packing[25]
 L  packing[26]
 L  packing[27]
 L  packing[28]
 L  packing[29]
 L  packing[30]
 L  packing[31]
 L  packing[32]
 L  packing[33]
 L  packing[34]
 L  packing[35]
 L  packing[36]
 L  packing[37]
 L  packing[38]
 L  packing[39]
 L  packing[40]
 L  packing[41]
 L  packing[42]
 L  packing[43]
 L  packing[44]
 L  packing[45]
 L  packing[46]
 L  packing[47]
 L  packing[48]
 L  packing[49]
COLUMNS
    MARKER    'MARKER'                 'INTORG'
    x[1]      OBJ       170
    x[1]      packing[0]  46
    x[1]      packing[1]  196
    x[1]      packing[2]  3
    x[1]      packing[4]  2
    x[1]      packing[6]  35
    x[1]      packing[8]  77
    x[1]      packing[9]  195
    x[1]      packing[10]  128
    x[1]      packing[11]  90
    x[1]      packing[12]  56
    x[1]      packing[13]  140
    x[1]      packing[14]  43
    x[1]      packing[15]  187
    x[1]      packing[17]  77
    x[1]      packing[19]  91
    x[1]      packing[20]  79
    x[1]      packing[21]  30
    x[1]      packing[22]  41
    x[1]      packing[23]  198
    x[1]      packing[25]  112
    x[1]      packing[26]  168
    x[1]      packing[28]  87
    x[1]      packing[29]  61
    x[1]      packing[31]  196
    x[1]      packing[36]  52
    x[1]      packing[37]  186
    x[1]      packing[38]  95
    x[1]      packing[40]  8
    x[1]      packing[42]  127
    x[1]      packing[43]  159
    x[1]      packing[45]  176
    x[1]      packing[47]  25
    x[1]      packing[48]  26
    x[1]      packing[49]  18
    x[2]      OBJ       185
    x[2]      packing[0]  54
    x[2]      packing[1]  117
    x[2]      packing[2]  55
    x[2]      packing[3]  73
    x[2]      packing[4]  138
    x[2]      packing[5]  65
    x[2]      packing[6]  152
    x[2]      packing[7]  133
    x[2]      packing[10]  88
    x[2]      packing[11]  189
    x[2]      packing[12]  130
    x[2]      packing[13]  102
    x[2]      packing[14]  71
    x[2]      packing[16]  118
    x[2]      packing[19]  138
    x[2]      packing[20]  67
    x[2]      packing[21]  70
    x[2]      packing[24]  160
    x[2]      packing[25]  42
    x[2]      packing[26]  51
    x[2]      packing[27]  111
    x[2]      packing[28]  39
    x[2]      packing[29]  123
    x[2]      packing[30]  49
    x[2]      packing[31]  160
    x[2]      packing[32]  186
    x[2]      packing[33]  95
    x[2]      packing[34]  155
    x[2]      packing[36]  104
    x[2]      packing[37]  95
    x[2]      packing[38]  21
    x[2]      packing[39]  140
    x[2]      packing[40]  122
    x[2]      packing[41]  43
    x[2]      packing[44]  15
    x[2]      packing[45]  146
    x[2]      packing[47]  168
    x[2]      packing[48]  172
    x[2]      packing[49]  7
    x[3]      OBJ       143
    x[3]      packing[0]  83
    x[3]      packing[1]  4
    x[3]      packing[2]  169
    x[3]      packing[3]  174
    x[3]      packing[4]  124
    x[3]      packing[6]  169
    x[3]      packing[7]  26
    x[3]      packing[8]  88
    x[3]      packing[10]  192
    x[3]      packing[12]  5
    x[3]      packing[15]  85
    x[3]      packing[17]  114
    x[3]      packing[19]  168
    x[3]      packing[20]  171
    x[3]      packing[22]  18
    x[3]      packing[25]  105
    x[3]      packing[26]  12
    x[3]      packing[27]  183
    x[3]      packing[28]  150
    x[3]      packing[29]  50
    x[3]      packing[30]  11
    x[3]      packing[32]  138
    x[3]      packing[33]  2
    x[3]      packing[34]  192
    x[3]      packing[35]  196
    x[3]      packing[37]  98
    x[3]      packing[38]  174
    x[3]      packing[42]  55
    x[3]      packing[43]  187
    x[3]      packing[46]  30
    x[3]      packing[48]  118
    x[3]      packing[49]  159
    x[4]      OBJ       99
    x[4]      packing[0]  179
    x[4]      packing[3]  56
    x[4]      packing[4]  98
    x[4]      packing[5]  134
    x[4]      packing[6]  146
    x[4]      packing[7]  169
    x[4]      packing[8]  176
    x[4]      packing[9]  181
    x[4]      packing[10]  85
    x[4]      packing[11]  53
    x[4]      packing[12]  57
    x[4]      packing[13]  72
    x[4]      packing[14]  61
    x[4]      packing[15]  170
    x[4]      packing[16]  8
    x[4]      packing[18]  54
    x[4]      packing[20]  39
    x[4]      packing[21]  22
    x[4]      packing[22]  103
    x[4]      packing[24]  41
    x[4]      packing[26]  127
    x[4]      packing[27]  132
    x[4]      packing[28]  170
    x[4]      packing[30]  137
    x[4]      packing[31]  186
    x[4]      packing[33]  30
    x[4]      packing[34]  53
    x[4]      packing[35]  193
    x[4]      packing[36]  174
    x[4]      packing[38]  5
    x[4]      packing[39]  105
    x[4]      packing[40]  80
    x[4]      packing[42]  140
    x[4]      packing[43]  71
    x[4]      packing[44]  30
    x[4]      packing[45]  115
    x[4]      packing[46]  111
    x[4]      packing[47]  104
    x[4]      packing[48]  77
    x[4]      packing[49]  189
    x[5]      OBJ       162
    x[5]      packing[0]  5
    x[5]      packing[1]  10
    x[5]      packing[2]  194
    x[5]      packing[4]  19
    x[5]      packing[5]  30
    x[5]      packing[7]  18
    x[5]      packing[8]  104
    x[5]      packing[9]  51
    x[5]      packing[10]  139
    x[5]      packing[11]  155
    x[5]      packing[12]  159
    x[5]      packing[15]  101
    x[5]      packing[16]  35
    x[5]      packing[18]  160
    x[5]      packing[19]  34
    x[5]      packing[20]  13
    x[5]      packing[22]  167
    x[5]      packing[23]  53
    x[5]      packing[24]  17
    x[5]      packing[28]  135
    x[5]      packing[30]  189
    x[5]      packing[31]  67
    x[5]      packing[34]  188
    x[5]      packing[35]  22
    x[5]      packing[36]  139
    x[5]      packing[37]  64
    x[5]      packing[38]  70
    x[5]      packing[40]  26
    x[5]      packing[41]  83
    x[5]      packing[42]  168
    x[5]      packing[43]  69
    x[5]      packing[44]  102
    x[5]      packing[45]  166
    x[5]      packing[46]  181
    x[5]      packing[47]  29
    x[5]      packing[48]  153
    x[5]      packing[49]  178
    x[6]      OBJ       20
    x[6]      packing[1]  12
    x[6]      packing[2]  105
    x[6]      packing[3]  114
    x[6]      packing[4]  183
    x[6]      packing[6]  174
    x[6]      packing[8]  103
    x[6]      packing[9]  26
    x[6]      packing[10]  104
    x[6]      packing[11]  45
    x[6]      packing[14]  97
    x[6]      packing[17]  20
    x[6]      packing[19]  197
    x[6]      packing[20]  53
    x[6]      packing[21]  126
    x[6]      packing[23]  87
    x[6]      packing[25]  97
    x[6]      packing[27]  105
    x[6]      packing[28]  81
    x[6]      packing[29]  172
    x[6]      packing[30]  5
    x[6]      packing[31]  73
    x[6]      packing[32]  109
    x[6]      packing[35]  83
    x[6]      packing[36]  198
    x[6]      packing[37]  81
    x[6]      packing[38]  67
    x[6]      packing[39]  15
    x[6]      packing[40]  174
    x[6]      packing[41]  192
    x[6]      packing[43]  76
    x[6]      packing[45]  185
    x[6]      packing[46]  48
    x[6]      packing[48]  36
    x[6]      packing[49]  102
    x[7]      OBJ       24
    x[7]      packing[0]  85
    x[7]      packing[1]  136
    x[7]      packing[2]  93
    x[7]      packing[4]  115
    x[7]      packing[5]  11
    x[7]      packing[6]  38
    x[7]      packing[7]  77
    x[7]      packing[8]  26
    x[7]      packing[9]  132
    x[7]      packing[10]  132
    x[7]      packing[11]  20
    x[7]      packing[12]  129
    x[7]      packing[14]  8
    x[7]      packing[15]  155
    x[7]      packing[16]  148
    x[7]      packing[17]  44
    x[7]      packing[18]  3
    x[7]      packing[19]  72
    x[7]      packing[20]  30
    x[7]      packing[21]  154
    x[7]      packing[22]  19
    x[7]      packing[24]  189
    x[7]      packing[25]  99
    x[7]      packing[27]  32
    x[7]      packing[28]  161
    x[7]      packing[29]  17
    x[7]      packing[30]  91
    x[7]      packing[31]  53
    x[7]      packing[32]  73
    x[7]      packing[33]  4
    x[7]      packing[34]  17
    x[7]      packing[35]  117
    x[7]      packing[36]  168
    x[7]      packing[37]  172
    x[7]      packing[40]  163
    x[7]      packing[41]  133
    x[7]      packing[42]  79
    x[7]      packing[45]  24
    x[7]      packing[46]  145
    x[7]      packing[48]  85
    x[8]      OBJ       84
    x[8]      packing[2]  27
    x[8]      packing[4]  160
    x[8]      packing[5]  9
    x[8]      packing[6]  78
    x[8]      packing[8]  119
    x[8]      packing[9]  96
    x[8]      packing[12]  35
    x[8]      packing[14]  25
    x[8]      packing[15]  101
    x[8]      packing[16]  2
    x[8]      packing[17]  70
    x[8]      packing[18]  125
    x[8]      packing[19]  31
    x[8]      packing[20]  42
    x[8]      packing[21]  177
    x[8]      packing[23]  124
    x[8]      packing[25]  151
    x[8]      packing[27]  81
    x[8]      packing[28]  98
    x[8]      packing[30]  94
    x[8]      packing[31]  144
    x[8]      packing[32]  102
    x[8]      packing[33]  121
    x[8]      packing[35]  77
    x[8]      packing[36]  115
    x[8]      packing[38]  98
    x[8]      packing[39]  11
    x[8]      packing[40]  187
    x[8]      packing[41]  128
    x[8]      packing[42]  64
    x[8]      packing[44]  13
    x[8]      packing[46]  83
    x[8]      packing[47]  81
    x[8]      packing[48]  125
    x[8]      packing[49]  21
    x[9]      OBJ       31
    x[9]      packing[0]  46
    x[9]      packing[1]  15
    x[9]      packing[2]  59
    x[9]      packing[3]  75
    x[9]      packing[4]  66
    x[9]      packing[7]  142
    x[9]      packing[9]  111
    x[9]      packing[10]  77
    x[9]      packing[12]  11
    x[9]      packing[13]  135
    x[9]      packing[14]  87
    x[9]      packing[16]  34
    x[9]      packing[17]  168
    x[9]      packing[18]  46
    x[9]      packing[19]  80
    x[9]      packing[20]  71
    x[9]      packing[21]  73
    x[9]      packing[23]  80
    x[9]      packing[24]  76
    x[9]      packing[25]  16
    x[9]      packing[26]  5
    x[9]      packing[27]  16
    x[9]      packing[28]  91
    x[9]      packing[29]  42
    x[9]      packing[30]  75
    x[9]      packing[31]  152
    x[9]      packing[32]  15
    x[9]      packing[33]  190
    x[9]      packing[36]  189
    x[9]      packing[37]  60
    x[9]      packing[39]  131
    x[9]      packing[40]  54
    x[9]      packing[41]  118
    x[9]      packing[42]  10
    x[9]      packing[46]  47
    x[9]      packing[47]  107
    x[9]      packing[48]  30
    x[10]     OBJ       171
    x[10]     packing[0]  58
    x[10]     packing[1]  113
    x[10]     packing[2]  108
    x[10]     packing[3]  115
    x[10]     packing[5]  177
    x[10]     packing[7]  101
    x[10]     packing[10]  32
    x[10]     packing[11]  8
    x[10]     packing[12]  152
    x[10]     packing[13]  20
    x[10]     packing[15]  136
    x[10]     packing[16]  117
    x[10]     packing[17]  198
    x[10]     packing[20]  55
    x[10]     packing[21]  101
    x[10]     packing[22]  157
    x[10]     packing[23]  86
    x[10]     packing[24]  97
    x[10]     packing[25]  56
    x[10]     packing[27]  176
    x[10]     packing[28]  120
    x[10]     packing[31]  188
    x[10]     packing[33]  183
    x[10]     packing[34]  70
    x[10]     packing[35]  133
    x[10]     packing[36]  195
    x[10]     packing[37]  72
    x[10]     packing[38]  41
    x[10]     packing[39]  157
    x[10]     packing[40]  25
    x[10]     packing[41]  195
    x[10]     packing[44]  12
    x[10]     packing[46]  157
    x[10]     packing[48]  157
    x[11]     OBJ       127
    x[11]     packing[0]  84
    x[11]     packing[1]  15
    x[11]     packing[2]  91
    x[11]     packing[3]  168
    x[11]     packing[6]  159
    x[11]     packing[7]  8
    x[11]     packing[8]  106
    x[11]     packing[9]  35
    x[11]     packing[10]  144
    x[11]     packing[11]  128
    x[11]     packing[12]  57
    x[11]     packing[13]  47
    x[11]     packing[14]  131
    x[11]     packing[16]  76
    x[11]     packing[18]  91
    x[11]     packing[19]  166
    x[11]     packing[20]  63
    x[11]     packing[21]  83
    x[11]     packing[22]  106
    x[11]     packing[23]  163
    x[11]     packing[24]  55
    x[11]     packing[25]  124
    x[11]     packing[26]  153
    x[11]     packing[27]  62
    x[11]     packing[28]  107
    x[11]     packing[29]  46
    x[11]     packing[30]  17
    x[11]     packing[32]  43
    x[11]     packing[33]  48
    x[11]     packing[34]  44
    x[11]     packing[35]  92
    x[11]     packing[36]  69
    x[11]     packing[37]  34
    x[11]     packing[38]  61
    x[11]     packing[39]  95
    x[11]     packing[40]  132
    x[11]     packing[42]  10
    x[11]     packing[43]  152
    x[11]     packing[44]  167
    x[11]     packing[45]  60
    x[11]     packing[46]  9
    x[11]     packing[49]  126
    x[12]     OBJ       69
    x[12]     packing[0]  190
    x[12]     packing[1]  74
    x[12]     packing[2]  155
    x[12]     packing[3]  188
    x[12]     packing[4]  167
    x[12]     packing[5]  44
    x[12]     packing[6]  26
    x[12]     packing[7]  53
    x[12]     packing[8]  165
    x[12]     packing[11]  145
    x[12]     packing[12]  48
    x[12]     packing[14]  186
    x[12]     packing[16]  166
    x[12]     packing[17]  50
    x[12]     packing[18]  73
    x[12]     packing[19]  123
    x[12]     packing[20]  167
    x[12]     packing[21]  162
    x[12]     packing[23]  180
    x[12]     packing[24]  27
    x[12]     packing[25]  123
    x[12]     packing[26]  21
    x[12]     packing[28]  188
    x[12]     packing[29]  55
    x[12]     packing[30]  71
    x[12]     packing[31]  61
    x[12]     packing[33]  135
    x[12]     packing[34]  13
    x[12]     packing[35]  93
    x[12]     packing[37]  80
    x[12]     packing[38]  75
    x[12]     packing[39]  48
    x[12]     packing[40]  8
    x[12]     packing[41]  131
    x[12]     packing[42]  184
    x[12]     packing[43]  105
    x[12]     packing[44]  152
    x[12]     packing[45]  111
    x[12]     packing[46]  41
    x[12]     packing[47]  182
    x[12]     packing[48]  190
    x[12]     packing[49]  77
    x[13]     OBJ       62
    x[13]     packing[0]  64
    x[13]     packing[3]  189
    x[13]     packing[4]  23
    x[13]     packing[5]  122
    x[13]     packing[6]  75
    x[13]     packing[7]  67
    x[13]     packing[8]  148
    x[13]     packing[9]  14
    x[13]     packing[10]  76
    x[13]     packing[11]  199
    x[13]     packing[12]  75
    x[13]     packing[13]  162
    x[13]     packing[15]  188
    x[13]     packing[16]  74
    x[13]     packing[18]  115
    x[13]     packing[19]  147
    x[13]     packing[20]  63
    x[13]     packing[22]  39
    x[13]     packing[23]  176
    x[13]     packing[25]  113
    x[13]     packing[27]  184
    x[13]     packing[28]  7
    x[13]     packing[29]  42
    x[13]     packing[30]  198
    x[13]     packing[31]  188
    x[13]     packing[32]  131
    x[13]     packing[33]  145
    x[13]     packing[34]  58
    x[13]     packing[35]  53
    x[13]     packing[36]  24
    x[13]     packing[37]  181
    x[13]     packing[38]  12
    x[13]     packing[39]  181
    x[13]     packing[40]  43
    x[13]     packing[41]  150
    x[13]     packing[42]  38
    x[13]     packing[43]  22
    x[13]     packing[45]  44
    x[13]     packing[47]  192
    x[13]     packing[49]  168
    x[14]     OBJ       123
    x[14]     packing[0]  129
    x[14]     packing[3]  100
    x[14]     packing[4]  188
    x[14]     packing[5]  128
    x[14]     packing[6]  130
    x[14]     packing[8]  53
    x[14]     packing[10]  81
    x[14]     packing[11]  22
    x[14]     packing[12]  78
    x[14]     packing[13]  74
    x[14]     packing[15]  137
    x[14]     packing[18]  34
    x[14]     packing[20]  91
    x[14]     packing[21]  75
    x[14]     packing[22]  113
    x[14]     packing[23]  199
    x[14]     packing[24]  198
    x[14]     packing[25]  9
    x[14]     packing[30]  154
    x[14]     packing[31]  152
    x[14]     packing[33]  58
    x[14]     packing[35]  83
    x[14]     packing[36]  60
    x[14]     packing[37]  114
    x[14]     packing[38]  192
    x[14]     packing[39]  124
    x[14]     packing[40]  115
    x[14]     packing[43]  147
    x[14]     packing[44]  41
    x[14]     packing[46]  132
    x[14]     packing[47]  93
    x[14]     packing[48]  116
    x[14]     packing[49]  102
    x[15]     OBJ       15
    x[15]     packing[0]  189
    x[15]     packing[1]  95
    x[15]     packing[2]  137
    x[15]     packing[3]  158
    x[15]     packing[4]  55
    x[15]     packing[6]  87
    x[15]     packing[7]  34
    x[15]     packing[8]  123
    x[15]     packing[9]  191
    x[15]     packing[10]  110
    x[15]     packing[11]  21
    x[15]     packing[12]  118
    x[15]     packing[14]  160
    x[15]     packing[16]  7
    x[15]     packing[17]  43
    x[15]     packing[18]  46
    x[15]     packing[20]  6
    x[15]     packing[21]  45
    x[15]     packing[22]  87
    x[15]     packing[24]  95
    x[15]     packing[25]  126
    x[15]     packing[26]  30
    x[15]     packing[27]  129
    x[15]     packing[28]  18
    x[15]     packing[29]  160
    x[15]     packing[30]  117
    x[15]     packing[31]  70
    x[15]     packing[32]  68
    x[15]     packing[34]  39
    x[15]     packing[35]  145
    x[15]     packing[36]  168
    x[15]     packing[37]  96
    x[15]     packing[38]  142
    x[15]     packing[39]  89
    x[15]     packing[40]  199
    x[15]     packing[41]  19
    x[15]     packing[42]  89
    x[15]     packing[43]  131
    x[15]     packing[44]  47
    x[15]     packing[45]  27
    x[15]     packing[47]  32
    x[15]     packing[48]  163
    x[15]     packing[49]  185
    x[16]     OBJ       27
    x[16]     packing[0]  93
    x[16]     packing[4]  27
    x[16]     packing[5]  117
    x[16]     packing[6]  72
    x[16]     packing[8]  46
    x[16]     packing[9]  140
    x[16]     packing[10]  2
    x[16]     packing[11]  92
    x[16]     packing[12]  164
    x[16]     packing[14]  184
    x[16]     packing[15]  60
    x[16]     packing[16]  118
    x[16]     packing[18]  198
    x[16]     packing[19]  44
    x[16]     packing[21]  40
    x[16]     packing[23]  111
    x[16]     packing[26]  67
    x[16]     packing[27]  72
    x[16]     packing[28]  4
    x[16]     packing[29]  44
    x[16]     packing[31]  19
    x[16]     packing[35]  23
    x[16]     packing[36]  52
    x[16]     packing[37]  149
    x[16]     packing[38]  124
    x[16]     packing[39]  11
    x[16]     packing[40]  55
    x[16]     packing[41]  195
    x[16]     packing[42]  165
    x[16]     packing[44]  9
    x[16]     packing[45]  46
    x[16]     packing[47]  169
    x[16]     packing[48]  105
    x[16]     packing[49]  26
    x[17]     OBJ       161
    x[17]     packing[0]  54
    x[17]     packing[1]  173
    x[17]     packing[2]  52
    x[17]     packing[4]  194
    x[17]     packing[5]  1
    x[17]     packing[6]  71
    x[17]     packing[7]  171
    x[17]     packing[8]  83
    x[17]     packing[9]  25
    x[17]     packing[11]  17
    x[17]     packing[12]  69
    x[17]     packing[14]  40
    x[17]     packing[15]  74
    x[17]     packing[17]  47
    x[17]     packing[20]  18
    x[17]     packing[22]  130
    x[17]     packing[23]  122
    x[17]     packing[24]  97
    x[17]     packing[25]  176
    x[17]     packing[26]  54
    x[17]     packing[27]  153
    x[17]     packing[28]  138
    x[17]     packing[30]  134
    x[17]     packing[33]  81
    x[17]     packing[35]  176
    x[17]     packing[36]  101
    x[17]     packing[37]  62
    x[17]     packing[38]  106
    x[17]     packing[39]  162
    x[17]     packing[40]  105
    x[17]     packing[41]  136
    x[17]     packing[42]  124
    x[17]     packing[43]  145
    x[17]     packing[44]  148
    x[17]     packing[45]  48
    x[17]     packing[47]  82
    x[17]     packing[48]  43
    x[18]     OBJ       81
    x[18]     packing[1]  99
    x[18]     packing[2]  189
    x[18]     packing[4]  6
    x[18]     packing[5]  34
    x[18]     packing[6]  125
    x[18]     packing[7]  133
    x[18]     packing[8]  141
    x[18]     packing[9]  142
    x[18]     packing[10]  40
    x[18]     packing[11]  11
    x[18]     packing[13]  59
    x[18]     packing[14]  198
    x[18]     packing[15]  41
    x[18]     packing[16]  197
    x[18]     packing[17]  68
    x[18]     packing[19]  41
    x[18]     packing[22]  113
    x[18]     packing[23]  32
    x[18]     packing[24]  138
    x[18]     packing[25]  165
    x[18]     packing[26]  2
    x[18]     packing[27]  113
    x[18]     packing[28]  188
    x[18]     packing[29]  154
    x[18]     packing[30]  138
    x[18]     packing[31]  157
    x[18]     packing[32]  101
    x[18]     packing[35]  165
    x[18]     packing[36]  55
    x[18]     packing[37]  196
    x[18]     packing[39]  132
    x[18]     packing[40]  55
    x[18]     packing[42]  124
    x[18]     packing[44]  87
    x[18]     packing[45]  21
    x[18]     packing[49]  13
    x[19]     OBJ       119
    x[19]     packing[0]  55
    x[19]     packing[2]  98
    x[19]     packing[3]  86
    x[19]     packing[5]  181
    x[19]     packing[7]  147
    x[19]     packing[8]  121
    x[19]     packing[9]  160
    x[19]     packing[10]  104
    x[19]     packing[11]  11
    x[19]     packing[13]  21
    x[19]     packing[14]  105
    x[19]     packing[17]  186
    x[19]     packing[18]  161
    x[19]     packing[19]  105
    x[19]     packing[20]  182
    x[19]     packing[21]  17
    x[19]     packing[22]  139
    x[19]     packing[23]  182
    x[19]     packing[24]  94
    x[19]     packing[27]  29
    x[19]     packing[28]  53
    x[19]     packing[30]  157
    x[19]     packing[33]  166
    x[19]     packing[34]  127
    x[19]     packing[35]  47
    x[19]     packing[36]  98
    x[19]     packing[37]  48
    x[19]     packing[39]  106
    x[19]     packing[40]  3
    x[19]     packing[42]  9
    x[19]     packing[43]  101
    x[19]     packing[44]  53
    x[19]     packing[45]  115
    x[19]     packing[46]  10
    x[19]     packing[47]  132
    x[19]     packing[48]  104
    x[20]     OBJ       182
    x[20]     packing[0]  196
    x[20]     packing[1]  154
    x[20]     packing[2]  97
    x[20]     packing[3]  31
    x[20]     packing[4]  124
    x[20]     packing[5]  28
    x[20]     packing[6]  152
    x[20]     packing[8]  107
    x[20]     packing[9]  185
    x[20]     packing[10]  71
    x[20]     packing[11]  179
    x[20]     packing[12]  106
    x[20]     packing[13]  165
    x[20]     packing[14]  113
    x[20]     packing[15]  141
    x[20]     packing[16]  124
    x[20]     packing[18]  101
    x[20]     packing[19]  36
    x[20]     packing[20]  95
    x[20]     packing[23]  153
    x[20]     packing[24]  86
    x[20]     packing[26]  165
    x[20]     packing[29]  117
    x[20]     packing[30]  194
    x[20]     packing[32]  4
    x[20]     packing[33]  104
    x[20]     packing[34]  105
    x[20]     packing[35]  117
    x[20]     packing[36]  190
    x[20]     packing[38]  30
    x[20]     packing[39]  59
    x[20]     packing[40]  18
    x[20]     packing[41]  100
    x[20]     packing[42]  75
    x[20]     packing[43]  129
    x[20]     packing[44]  152
    x[20]     packing[45]  37
    x[20]     packing[46]  79
    x[20]     packing[47]  119
    x[20]     packing[48]  8
    x[20]     packing[49]  59
    MARKER    'MARKER'                 'INTEND'
RHS
    RHS1      packing[0]  805
    RHS1      packing[1]  607
    RHS1      packing[2]  816
    RHS1      packing[3]  764
    RHS1      packing[4]  845
    RHS1      packing[5]  541
    RHS1      packing[6]  845
    RHS1      packing[7]  640
    RHS1      packing[8]  893
    RHS1      packing[9]  842
    RHS1      packing[10]  803
    RHS1      packing[11]  693
    RHS1      packing[12]  725
    RHS1      packing[13]  499
    RHS1      packing[14]  755
    RHS1      packing[15]  788
    RHS1      packing[16]  612
    RHS1      packing[17]  543
    RHS1      packing[18]  604
    RHS1      packing[19]  737
    RHS1      packing[20]  653
    RHS1      packing[21]  588
    RHS1      packing[22]  616
    RHS1      packing[23]  973
    RHS1      packing[24]  685
    RHS1      packing[25]  757
    RHS1      packing[26]  428
    RHS1      packing[27]  789
    RHS1      packing[28]  918
    RHS1      packing[29]  542
    RHS1      packing[30]  916
    RHS1      packing[31]  933
    RHS1      packing[32]  485
    RHS1      packing[33]  681
    RHS1      packing[34]  531
    RHS1      packing[35]  908
    RHS1      packing[36]  1076
    RHS1      packing[37]  894
    RHS1      packing[38]  657
    RHS1      packing[39]  783
    RHS1      packing[40]  786
    RHS1      packing[41]  812
    RHS1      packing[42]  731
    RHS1      packing[43]  747
    RHS1      packing[44]  514
    RHS1      packing[45]  661
    RHS1      packing[46]  537
    RHS1      packing[47]  758
    RHS1      packing[48]  854
    RHS1      packing[49]  715
BOUNDS
 BV BND1      x[1]    
 BV BND1      x[2]    
 BV BND1      x[3]    
 BV BND1      x[4]    
 BV BND1      x[5]    
 BV BND1      x[6]    
 BV BND1      x[7]    
 BV BND1      x[8]    
 BV BND1      x[9]    
 BV BND1      x[10]   
 BV BND1      x[11]   
 BV BND1      x[12]   
 BV BND1      x[13]   
 BV BND1      x[14]   
 BV BND1      x[15]   
 BV BND1      x[16]   
 BV BND1      x[17]   
 BV BND1      x[18]   
 BV BND1      x[19]   
 BV BND1      x[20]   
ENDATA
